p edge 100 1980
e 1 2
e 1 3
e 1 7
e 1 8
e 1 9
e 1 12
e 1 20
e 1 21
e 1 23
e 1 25
e 1 28
e 1 34
e 1 36
e 1 37
e 1 42
e 1 43
e 1 45
e 1 49
e 1 53
e 1 55
e 1 57
e 1 58
e 1 59
e 1 62
e 1 63
e 1 64
e 1 68
e 1 71
e 1 72
e 1 74
e 1 77
e 1 78
e 1 81
e 1 86
e 1 88
e 1 89
e 1 91
e 1 94
e 1 95
e 1 98
e 2 11
e 2 13
e 2 15
e 2 17
e 2 18
e 2 20
e 2 22
e 2 23
e 2 25
e 2 28
e 2 32
e 2 34
e 2 35
e 2 36
e 2 37
e 2 40
e 2 41
e 2 43
e 2 45
e 2 46
e 2 47
e 2 49
e 2 50
e 2 51
e 2 58
e 2 59
e 2 66
e 2 69
e 2 70
e 2 81
e 2 84
e 2 85
e 2 93
e 2 95
e 2 97
e 3 6
e 3 7
e 3 9
e 3 12
e 3 14
e 3 15
e 3 18
e 3 20
e 3 24
e 3 34
e 3 35
e 3 40
e 3 42
e 3 46
e 3 50
e 3 51
e 3 52
e 3 66
e 3 67
e 3 68
e 3 72
e 3 75
e 3 81
e 3 84
e 3 85
e 3 88
e 3 91
e 3 95
e 4 5
e 4 8
e 4 12
e 4 18
e 4 22
e 4 23
e 4 24
e 4 26
e 4 29
e 4 31
e 4 32
e 4 33
e 4 42
e 4 44
e 4 46
e 4 50
e 4 51
e 4 54
e 4 56
e 4 57
e 4 60
e 4 64
e 4 65
e 4 66
e 4 67
e 4 68
e 4 70
e 4 72
e 4 75
e 4 76
e 4 77
e 4 82
e 4 84
e 4 87
e 4 90
e 4 91
e 4 93
e 4 94
e 4 97
e 4 98
e 4 99
e 5 11
e 5 12
e 5 13
e 5 15
e 5 18
e 5 25
e 5 26
e 5 27
e 5 30
e 5 32
e 5 33
e 5 34
e 5 37
e 5 38
e 5 40
e 5 41
e 5 50
e 5 51
e 5 53
e 5 55
e 5 59
e 5 64
e 5 73
e 5 74
e 5 78
e 5 79
e 5 82
e 5 87
e 5 91
e 5 92
e 5 93
e 5 94
e 5 96
e 5 99
e 5 100
e 6 8
e 6 10
e 6 12
e 6 14
e 6 16
e 6 17
e 6 19
e 6 23
e 6 28
e 6 35
e 6 36
e 6 39
e 6 40
e 6 41
e 6 43
e 6 46
e 6 50
e 6 51
e 6 54
e 6 59
e 6 61
e 6 64
e 6 66
e 6 67
e 6 73
e 6 75
e 6 83
e 6 86
e 6 88
e 6 89
e 6 92
e 6 95
e 6 98
e 7 11
e 7 15
e 7 23
e 7 27
e 7 29
e 7 31
e 7 33
e 7 35
e 7 36
e 7 37
e 7 39
e 7 40
e 7 41
e 7 45
e 7 47
e 7 48
e 7 50
e 7 53
e 7 54
e 7 55
e 7 62
e 7 65
e 7 68
e 7 72
e 7 79
e 7 82
e 7 84
e 7 88
e 7 90
e 7 91
e 7 93
e 7 94
e 8 10
e 8 12
e 8 13
e 8 14
e 8 20
e 8 25
e 8 31
e 8 33
e 8 34
e 8 38
e 8 41
e 8 42
e 8 43
e 8 44
e 8 48
e 8 55
e 8 60
e 8 63
e 8 67
e 8 69
e 8 71
e 8 74
e 8 76
e 8 78
e 8 80
e 8 81
e 8 84
e 8 90
e 8 92
e 8 93
e 8 95
e 8 96
e 8 98
e 8 99
e 8 100
e 9 14
e 9 15
e 9 19
e 9 21
e 9 22
e 9 23
e 9 24
e 9 26
e 9 28
e 9 29
e 9 31
e 9 32
e 9 33
e 9 35
e 9 36
e 9 42
e 9 44
e 9 47
e 9 48
e 9 50
e 9 54
e 9 57
e 9 60
e 9 61
e 9 65
e 9 66
e 9 71
e 9 74
e 9 82
e 9 89
e 9 90
e 9 91
e 9 92
e 9 93
e 9 95
e 9 96
e 9 99
e 9 100
e 10 11
e 10 13
e 10 15
e 10 16
e 10 17
e 10 23
e 10 24
e 10 25
e 10 27
e 10 28
e 10 29
e 10 33
e 10 36
e 10 38
e 10 39
e 10 43
e 10 45
e 10 46
e 10 53
e 10 54
e 10 57
e 10 58
e 10 60
e 10 62
e 10 63
e 10 69
e 10 70
e 10 75
e 10 76
e 10 77
e 10 78
e 10 79
e 10 88
e 10 91
e 10 93
e 10 96
e 10 98
e 10 99
e 11 12
e 11 13
e 11 14
e 11 15
e 11 18
e 11 23
e 11 24
e 11 26
e 11 28
e 11 33
e 11 35
e 11 36
e 11 41
e 11 43
e 11 44
e 11 45
e 11 46
e 11 49
e 11 50
e 11 51
e 11 52
e 11 53
e 11 55
e 11 59
e 11 62
e 11 63
e 11 68
e 11 69
e 11 71
e 11 73
e 11 74
e 11 75
e 11 76
e 11 77
e 11 78
e 11 84
e 11 86
e 11 87
e 11 88
e 11 89
e 11 90
e 11 92
e 11 93
e 11 96
e 11 98
e 12 13
e 12 16
e 12 17
e 12 18
e 12 19
e 12 22
e 12 27
e 12 32
e 12 37
e 12 40
e 12 46
e 12 49
e 12 51
e 12 52
e 12 55
e 12 56
e 12 61
e 12 64
e 12 70
e 12 72
e 12 74
e 12 76
e 12 79
e 12 81
e 12 85
e 12 86
e 12 87
e 12 90
e 12 94
e 12 95
e 12 98
e 13 14
e 13 15
e 13 19
e 13 20
e 13 22
e 13 24
e 13 28
e 13 32
e 13 35
e 13 40
e 13 43
e 13 45
e 13 46
e 13 52
e 13 56
e 13 57
e 13 59
e 13 62
e 13 64
e 13 66
e 13 69
e 13 72
e 13 73
e 13 74
e 13 76
e 13 80
e 13 81
e 13 86
e 13 92
e 13 93
e 13 95
e 14 17
e 14 19
e 14 24
e 14 25
e 14 28
e 14 30
e 14 31
e 14 32
e 14 33
e 14 34
e 14 37
e 14 39
e 14 41
e 14 42
e 14 43
e 14 48
e 14 49
e 14 50
e 14 53
e 14 57
e 14 58
e 14 61
e 14 64
e 14 65
e 14 67
e 14 68
e 14 70
e 14 73
e 14 74
e 14 75
e 14 78
e 14 80
e 14 84
e 14 85
e 14 87
e 14 89
e 14 91
e 14 92
e 14 94
e 14 95
e 14 96
e 14 99
e 14 100
e 15 17
e 15 18
e 15 22
e 15 26
e 15 27
e 15 28
e 15 31
e 15 33
e 15 34
e 15 36
e 15 40
e 15 41
e 15 42
e 15 43
e 15 44
e 15 45
e 15 46
e 15 48
e 15 49
e 15 50
e 15 51
e 15 52
e 15 55
e 15 56
e 15 57
e 15 58
e 15 60
e 15 62
e 15 64
e 15 66
e 15 67
e 15 68
e 15 69
e 15 70
e 15 77
e 15 78
e 15 80
e 15 86
e 15 91
e 15 98
e 15 100
e 16 19
e 16 21
e 16 22
e 16 32
e 16 33
e 16 34
e 16 35
e 16 42
e 16 43
e 16 46
e 16 47
e 16 50
e 16 51
e 16 54
e 16 64
e 16 66
e 16 81
e 16 82
e 16 85
e 16 86
e 16 87
e 16 90
e 16 91
e 16 92
e 16 94
e 16 97
e 16 98
e 17 20
e 17 21
e 17 22
e 17 26
e 17 28
e 17 29
e 17 30
e 17 31
e 17 34
e 17 36
e 17 40
e 17 42
e 17 43
e 17 48
e 17 50
e 17 51
e 17 52
e 17 53
e 17 60
e 17 61
e 17 64
e 17 66
e 17 67
e 17 70
e 17 72
e 17 74
e 17 77
e 17 78
e 17 79
e 17 80
e 17 82
e 17 83
e 17 86
e 17 88
e 17 91
e 17 92
e 18 20
e 18 22
e 18 23
e 18 37
e 18 41
e 18 47
e 18 48
e 18 49
e 18 50
e 18 51
e 18 57
e 18 61
e 18 63
e 18 65
e 18 66
e 18 67
e 18 70
e 18 74
e 18 80
e 18 81
e 18 83
e 18 84
e 18 85
e 18 87
e 18 88
e 18 90
e 18 92
e 18 96
e 18 97
e 19 22
e 19 23
e 19 26
e 19 28
e 19 29
e 19 31
e 19 34
e 19 38
e 19 41
e 19 43
e 19 45
e 19 46
e 19 48
e 19 49
e 19 52
e 19 53
e 19 55
e 19 56
e 19 57
e 19 58
e 19 59
e 19 60
e 19 62
e 19 64
e 19 68
e 19 73
e 19 76
e 19 77
e 19 79
e 19 81
e 19 82
e 19 83
e 19 84
e 19 86
e 19 87
e 19 96
e 19 98
e 20 21
e 20 23
e 20 27
e 20 34
e 20 35
e 20 42
e 20 43
e 20 44
e 20 45
e 20 47
e 20 49
e 20 54
e 20 55
e 20 56
e 20 57
e 20 60
e 20 61
e 20 63
e 20 66
e 20 67
e 20 68
e 20 69
e 20 76
e 20 78
e 20 84
e 20 85
e 20 87
e 20 91
e 20 92
e 20 94
e 20 95
e 20 98
e 20 99
e 21 25
e 21 26
e 21 29
e 21 31
e 21 32
e 21 45
e 21 46
e 21 48
e 21 51
e 21 52
e 21 56
e 21 59
e 21 61
e 21 62
e 21 63
e 21 64
e 21 66
e 21 71
e 21 73
e 21 74
e 21 75
e 21 76
e 21 80
e 21 84
e 21 86
e 21 88
e 21 90
e 21 95
e 21 97
e 21 99
e 22 24
e 22 29
e 22 31
e 22 33
e 22 39
e 22 40
e 22 42
e 22 47
e 22 48
e 22 49
e 22 50
e 22 52
e 22 62
e 22 64
e 22 67
e 22 74
e 22 75
e 22 77
e 22 81
e 22 84
e 22 86
e 22 87
e 22 90
e 22 91
e 22 94
e 22 96
e 22 97
e 23 30
e 23 31
e 23 33
e 23 36
e 23 38
e 23 40
e 23 42
e 23 46
e 23 47
e 23 49
e 23 50
e 23 51
e 23 53
e 23 55
e 23 58
e 23 59
e 23 60
e 23 61
e 23 62
e 23 63
e 23 65
e 23 72
e 23 74
e 23 76
e 23 77
e 23 88
e 23 91
e 23 92
e 23 94
e 23 95
e 23 97
e 24 25
e 24 26
e 24 28
e 24 32
e 24 33
e 24 34
e 24 40
e 24 42
e 24 45
e 24 47
e 24 48
e 24 52
e 24 53
e 24 55
e 24 59
e 24 61
e 24 68
e 24 70
e 24 71
e 24 75
e 24 76
e 24 83
e 24 86
e 24 88
e 24 92
e 24 95
e 24 96
e 24 98
e 24 100
e 25 26
e 25 28
e 25 29
e 25 30
e 25 34
e 25 36
e 25 40
e 25 42
e 25 44
e 25 46
e 25 49
e 25 50
e 25 51
e 25 52
e 25 53
e 25 59
e 25 60
e 25 61
e 25 66
e 25 67
e 25 73
e 25 75
e 25 76
e 25 77
e 25 80
e 25 82
e 25 86
e 25 89
e 25 93
e 25 94
e 25 96
e 25 100
e 26 29
e 26 32
e 26 33
e 26 34
e 26 38
e 26 39
e 26 42
e 26 43
e 26 45
e 26 47
e 26 50
e 26 51
e 26 60
e 26 62
e 26 63
e 26 68
e 26 69
e 26 70
e 26 75
e 26 80
e 26 82
e 26 86
e 26 90
e 26 92
e 26 93
e 26 94
e 26 95
e 26 99
e 27 28
e 27 29
e 27 33
e 27 35
e 27 37
e 27 42
e 27 43
e 27 50
e 27 54
e 27 56
e 27 66
e 27 69
e 27 73
e 27 74
e 27 79
e 27 82
e 27 83
e 27 87
e 27 90
e 27 91
e 27 94
e 27 95
e 27 97
e 27 99
e 27 100
e 28 29
e 28 30
e 28 35
e 28 36
e 28 37
e 28 45
e 28 47
e 28 49
e 28 52
e 28 55
e 28 58
e 28 60
e 28 61
e 28 62
e 28 63
e 28 66
e 28 71
e 28 72
e 28 73
e 28 74
e 28 75
e 28 76
e 28 77
e 28 79
e 28 80
e 28 82
e 28 89
e 28 91
e 28 94
e 28 97
e 28 99
e 28 100
e 29 30
e 29 32
e 29 33
e 29 34
e 29 35
e 29 37
e 29 43
e 29 47
e 29 52
e 29 56
e 29 59
e 29 60
e 29 62
e 29 73
e 29 81
e 29 83
e 29 88
e 29 90
e 29 91
e 29 94
e 29 96
e 29 97
e 29 100
e 30 35
e 30 37
e 30 38
e 30 41
e 30 44
e 30 46
e 30 47
e 30 53
e 30 54
e 30 55
e 30 56
e 30 59
e 30 63
e 30 66
e 30 70
e 30 71
e 30 73
e 30 74
e 30 75
e 30 85
e 30 86
e 30 91
e 30 95
e 31 34
e 31 39
e 31 44
e 31 50
e 31 51
e 31 52
e 31 54
e 31 55
e 31 56
e 31 57
e 31 59
e 31 63
e 31 64
e 31 67
e 31 68
e 31 69
e 31 70
e 31 71
e 31 74
e 31 76
e 31 78
e 31 80
e 31 83
e 31 84
e 31 87
e 31 91
e 31 92
e 31 98
e 31 99
e 32 33
e 32 34
e 32 36
e 32 37
e 32 39
e 32 40
e 32 42
e 32 43
e 32 44
e 32 46
e 32 48
e 32 49
e 32 51
e 32 52
e 32 53
e 32 54
e 32 55
e 32 63
e 32 66
e 32 67
e 32 70
e 32 71
e 32 72
e 32 74
e 32 76
e 32 77
e 32 78
e 32 79
e 32 81
e 32 84
e 32 86
e 32 89
e 32 93
e 32 95
e 32 99
e 33 37
e 33 38
e 33 44
e 33 47
e 33 48
e 33 52
e 33 54
e 33 58
e 33 59
e 33 64
e 33 66
e 33 71
e 33 74
e 33 80
e 33 87
e 33 88
e 33 92
e 33 93
e 33 95
e 33 99
e 33 100
e 34 37
e 34 38
e 34 48
e 34 50
e 34 55
e 34 56
e 34 62
e 34 65
e 34 68
e 34 69
e 34 70
e 34 71
e 34 72
e 34 73
e 34 75
e 34 76
e 34 78
e 34 80
e 34 81
e 34 82
e 34 88
e 34 90
e 34 91
e 34 93
e 34 94
e 34 95
e 35 37
e 35 38
e 35 47
e 35 49
e 35 51
e 35 54
e 35 55
e 35 57
e 35 59
e 35 62
e 35 64
e 35 66
e 35 70
e 35 72
e 35 73
e 35 74
e 35 78
e 35 81
e 35 82
e 35 83
e 35 86
e 35 87
e 35 88
e 35 89
e 35 90
e 35 91
e 35 93
e 35 95
e 35 97
e 36 39
e 36 43
e 36 45
e 36 48
e 36 49
e 36 50
e 36 52
e 36 53
e 36 57
e 36 61
e 36 63
e 36 64
e 36 68
e 36 69
e 36 71
e 36 72
e 36 73
e 36 74
e 36 75
e 36 77
e 36 86
e 36 87
e 36 90
e 36 91
e 37 38
e 37 39
e 37 41
e 37 44
e 37 48
e 37 49
e 37 51
e 37 52
e 37 57
e 37 59
e 37 60
e 37 61
e 37 64
e 37 66
e 37 68
e 37 69
e 37 72
e 37 73
e 37 74
e 37 75
e 37 77
e 37 79
e 37 80
e 37 85
e 37 88
e 37 89
e 37 94
e 37 96
e 38 40
e 38 41
e 38 43
e 38 50
e 38 51
e 38 52
e 38 55
e 38 57
e 38 60
e 38 63
e 38 70
e 38 72
e 38 74
e 38 75
e 38 79
e 38 80
e 38 85
e 38 88
e 38 90
e 38 91
e 38 93
e 38 97
e 38 99
e 38 100
e 39 43
e 39 49
e 39 50
e 39 51
e 39 52
e 39 53
e 39 54
e 39 55
e 39 56
e 39 57
e 39 60
e 39 61
e 39 62
e 39 63
e 39 66
e 39 67
e 39 68
e 39 71
e 39 72
e 39 73
e 39 75
e 39 88
e 39 89
e 39 98
e 39 99
e 39 100
e 40 43
e 40 45
e 40 46
e 40 48
e 40 49
e 40 52
e 40 53
e 40 56
e 40 57
e 40 58
e 40 60
e 40 65
e 40 67
e 40 70
e 40 75
e 40 80
e 40 87
e 40 89
e 40 94
e 40 95
e 40 96
e 40 98
e 41 43
e 41 47
e 41 51
e 41 54
e 41 55
e 41 57
e 41 59
e 41 61
e 41 63
e 41 68
e 41 69
e 41 70
e 41 78
e 41 80
e 41 81
e 41 86
e 41 87
e 41 88
e 41 91
e 41 93
e 41 95
e 41 97
e 42 44
e 42 46
e 42 47
e 42 48
e 42 54
e 42 57
e 42 58
e 42 61
e 42 62
e 42 64
e 42 69
e 42 70
e 42 72
e 42 74
e 42 75
e 42 76
e 42 77
e 42 79
e 42 82
e 42 83
e 42 85
e 42 86
e 42 88
e 42 90
e 42 96
e 42 98
e 42 99
e 43 48
e 43 49
e 43 53
e 43 54
e 43 57
e 43 68
e 43 72
e 43 79
e 43 80
e 43 81
e 43 82
e 43 83
e 43 85
e 43 89
e 43 91
e 43 93
e 43 94
e 43 96
e 43 98
e 44 56
e 44 58
e 44 59
e 44 62
e 44 64
e 44 65
e 44 67
e 44 68
e 44 74
e 44 75
e 44 76
e 44 82
e 44 83
e 44 85
e 44 86
e 44 87
e 44 88
e 45 48
e 45 53
e 45 57
e 45 58
e 45 61
e 45 63
e 45 64
e 45 65
e 45 67
e 45 71
e 45 72
e 45 73
e 45 76
e 45 77
e 45 78
e 45 82
e 45 84
e 45 85
e 45 86
e 45 87
e 45 94
e 45 95
e 45 96
e 45 98
e 45 100
e 46 50
e 46 51
e 46 55
e 46 56
e 46 59
e 46 60
e 46 62
e 46 63
e 46 65
e 46 66
e 46 68
e 46 70
e 46 71
e 46 73
e 46 75
e 46 76
e 46 79
e 46 82
e 46 85
e 46 87
e 46 89
e 46 93
e 46 95
e 46 100
e 47 49
e 47 54
e 47 55
e 47 57
e 47 59
e 47 62
e 47 63
e 47 64
e 47 66
e 47 67
e 47 68
e 47 69
e 47 70
e 47 71
e 47 74
e 47 76
e 47 77
e 47 78
e 47 81
e 47 82
e 47 83
e 47 86
e 47 91
e 47 92
e 47 94
e 47 95
e 47 96
e 47 97
e 47 99
e 48 49
e 48 51
e 48 63
e 48 64
e 48 66
e 48 68
e 48 71
e 48 74
e 48 79
e 48 80
e 48 81
e 48 83
e 48 85
e 48 86
e 48 89
e 48 92
e 48 93
e 48 97
e 48 99
e 49 52
e 49 53
e 49 54
e 49 55
e 49 56
e 49 57
e 49 59
e 49 61
e 49 63
e 49 64
e 49 68
e 49 69
e 49 70
e 49 71
e 49 73
e 49 75
e 49 76
e 49 77
e 49 78
e 49 83
e 49 86
e 49 87
e 49 88
e 49 89
e 49 90
e 49 91
e 49 92
e 49 96
e 49 100
e 50 54
e 50 55
e 50 57
e 50 59
e 50 60
e 50 61
e 50 64
e 50 65
e 50 66
e 50 67
e 50 69
e 50 71
e 50 72
e 50 74
e 50 75
e 50 77
e 50 78
e 50 80
e 50 90
e 50 91
e 50 92
e 50 98
e 51 52
e 51 55
e 51 58
e 51 66
e 51 67
e 51 70
e 51 73
e 51 74
e 51 77
e 51 79
e 51 81
e 51 82
e 51 88
e 51 89
e 51 91
e 51 92
e 51 95
e 51 98
e 51 100
e 52 54
e 52 55
e 52 57
e 52 58
e 52 60
e 52 61
e 52 62
e 52 64
e 52 65
e 52 66
e 52 67
e 52 68
e 52 70
e 52 72
e 52 79
e 52 80
e 52 81
e 52 84
e 52 85
e 52 86
e 52 89
e 52 90
e 52 92
e 52 94
e 52 98
e 53 55
e 53 57
e 53 59
e 53 60
e 53 61
e 53 62
e 53 64
e 53 65
e 53 71
e 53 75
e 53 76
e 53 79
e 53 84
e 53 92
e 53 94
e 53 95
e 53 96
e 53 98
e 53 100
e 54 62
e 54 65
e 54 66
e 54 69
e 54 70
e 54 71
e 54 80
e 54 84
e 54 85
e 54 89
e 54 90
e 54 94
e 54 97
e 54 98
e 54 100
e 55 58
e 55 67
e 55 68
e 55 69
e 55 70
e 55 74
e 55 78
e 55 79
e 55 80
e 55 84
e 55 85
e 55 88
e 55 89
e 55 90
e 55 93
e 55 94
e 55 97
e 55 100
e 56 57
e 56 58
e 56 59
e 56 60
e 56 61
e 56 64
e 56 66
e 56 67
e 56 71
e 56 75
e 56 76
e 56 78
e 56 79
e 56 81
e 56 82
e 56 88
e 56 91
e 56 94
e 56 95
e 56 100
e 57 68
e 57 72
e 57 75
e 57 78
e 57 81
e 57 82
e 57 85
e 57 86
e 57 87
e 57 89
e 57 90
e 57 94
e 57 95
e 57 98
e 57 99
e 57 100
e 58 60
e 58 64
e 58 67
e 58 71
e 58 75
e 58 78
e 58 79
e 58 80
e 58 83
e 58 85
e 58 87
e 58 94
e 58 96
e 58 99
e 59 60
e 59 61
e 59 62
e 59 63
e 59 66
e 59 67
e 59 68
e 59 69
e 59 72
e 59 73
e 59 76
e 59 80
e 59 82
e 59 83
e 59 87
e 59 88
e 59 90
e 59 91
e 59 96
e 59 98
e 59 100
e 60 64
e 60 69
e 60 75
e 60 76
e 60 77
e 60 78
e 60 79
e 60 80
e 60 82
e 60 88
e 60 90
e 60 92
e 60 94
e 61 62
e 61 63
e 61 65
e 61 67
e 61 69
e 61 71
e 61 73
e 61 74
e 61 79
e 61 81
e 61 83
e 61 84
e 61 87
e 61 90
e 61 91
e 61 93
e 61 94
e 61 97
e 61 100
e 62 63
e 62 65
e 62 66
e 62 69
e 62 72
e 62 79
e 62 80
e 62 86
e 62 90
e 62 91
e 62 98
e 63 64
e 63 66
e 63 67
e 63 70
e 63 72
e 63 74
e 63 77
e 63 83
e 63 91
e 63 92
e 63 95
e 63 98
e 63 99
e 63 100
e 64 71
e 64 73
e 64 77
e 64 78
e 64 81
e 64 83
e 64 86
e 64 87
e 64 88
e 64 93
e 64 95
e 64 97
e 64 98
e 64 100
e 65 67
e 65 71
e 65 72
e 65 74
e 65 75
e 65 76
e 65 80
e 65 82
e 65 86
e 65 88
e 65 94
e 65 97
e 65 98
e 65 100
e 66 71
e 66 72
e 66 73
e 66 79
e 66 82
e 66 83
e 66 84
e 66 85
e 66 87
e 66 89
e 66 92
e 66 94
e 66 95
e 66 96
e 66 97
e 66 100
e 67 68
e 67 70
e 67 73
e 67 74
e 67 75
e 67 77
e 67 82
e 67 83
e 67 87
e 67 88
e 67 90
e 67 91
e 67 93
e 67 99
e 67 100
e 68 72
e 68 74
e 68 78
e 68 80
e 68 81
e 68 83
e 68 85
e 68 86
e 68 87
e 68 90
e 68 93
e 68 95
e 68 100
e 69 70
e 69 72
e 69 77
e 69 82
e 69 83
e 69 85
e 69 86
e 69 87
e 69 88
e 69 97
e 69 98
e 69 99
e 69 100
e 70 74
e 70 75
e 70 76
e 70 78
e 70 82
e 70 84
e 70 86
e 70 91
e 70 99
e 71 72
e 71 75
e 71 76
e 71 77
e 71 79
e 71 82
e 71 85
e 71 90
e 71 93
e 71 94
e 71 95
e 71 99
e 72 73
e 72 76
e 72 78
e 72 80
e 72 81
e 72 83
e 72 87
e 72 90
e 72 96
e 72 98
e 72 99
e 72 100
e 73 75
e 73 77
e 73 79
e 73 80
e 73 81
e 73 84
e 73 87
e 73 88
e 73 89
e 73 94
e 73 96
e 73 99
e 73 100
e 74 75
e 74 79
e 74 80
e 74 82
e 74 84
e 74 88
e 74 99
e 74 100
e 75 78
e 75 80
e 75 82
e 75 83
e 75 84
e 75 85
e 75 86
e 75 87
e 75 90
e 75 93
e 75 97
e 76 80
e 76 82
e 76 83
e 76 84
e 76 91
e 76 92
e 76 98
e 77 80
e 77 81
e 77 82
e 77 85
e 77 86
e 77 88
e 77 92
e 77 95
e 77 97
e 77 99
e 77 100
e 78 80
e 78 82
e 78 87
e 78 91
e 78 92
e 78 93
e 78 95
e 78 97
e 78 98
e 79 80
e 79 81
e 79 82
e 79 83
e 79 85
e 79 86
e 79 87
e 79 93
e 79 97
e 79 98
e 79 99
e 80 81
e 80 83
e 80 86
e 80 89
e 80 92
e 80 93
e 80 96
e 80 97
e 80 100
e 81 83
e 81 88
e 81 90
e 81 92
e 81 93
e 81 98
e 81 99
e 82 88
e 82 90
e 82 91
e 82 92
e 82 93
e 82 94
e 82 96
e 82 100
e 83 96
e 83 97
e 83 98
e 83 99
e 84 85
e 84 88
e 84 90
e 84 100
e 85 86
e 85 88
e 85 92
e 85 93
e 85 98
e 86 90
e 86 91
e 86 93
e 86 97
e 86 98
e 87 88
e 87 89
e 87 90
e 87 93
e 87 95
e 88 90
e 88 92
e 88 93
e 88 95
e 88 99
e 89 91
e 89 92
e 89 93
e 89 96
e 89 99
e 89 100
e 90 91
e 90 93
e 90 95
e 90 96
e 90 100
e 91 92
e 91 95
e 91 96
e 91 100
e 92 94
e 92 97
e 92 98
e 92 100
e 93 95
e 94 95
e 94 97
e 94 100
e 95 98
e 95 100
e 96 97
e 96 99
e 96 100
e 97 99
e 97 100
e 99 100
